Ca Zr S  H 
 1.0000000000000000
    13.1458635330000000    0.0000000000000000    0.0000000000000000
     0.0000000000000000   14.1362066269000000    0.0000000000000000
     0.0000000000000000    0.0000000000000000   19.2836170196999994
 Ca  Zr  S   H  
  32  32  96   2
Cartesian
  0.3260269402790339  0.4286741156840005  2.1075764954887561
  0.1339490384239988  0.3987459413095020 12.1220804464514238
 -0.5115178531940990  7.4742497482668044  2.1185098789642631
  0.4553135096135454  7.5216431573789482 11.2263890998342859
  6.6874429267792923  0.2208765083415598  2.4998152348564604
  6.5672009009093157  0.6388723829747429 12.6634518872032906
  7.1087392124534077  7.6306073766032458  2.3781596180952187
  6.6494494490286904  7.7424102824549266 12.0967185343580379
  3.5079375535805473  2.4866168947009730  7.3451679532932070
  4.0810047826152474  3.1097180795759303 16.9349293322418539
  3.6653953826572079  9.6986818258956973  7.3063736756713844
  3.0483783331634902 10.0318856654713446 16.9598631997138263
 10.0162559230888686  3.2502572078428407  6.6488453867233943
 10.0206769775233688  2.8650095104768036 16.9609238571303571
  9.6468079898919097  9.8389293828166515  7.4039066165764584
 10.0109077608102162 10.2687552246245968 17.0966384155627722
  2.6977097743684650  4.3440364139060605  2.4938164341912739
  3.6279907177906994  4.0009714795042495 12.0542009805213670
  3.2639752807995039 11.2058626438741786  2.8384781067476195
  3.4389685285389104 11.0475256294335917 12.1873140352673897
  9.7086331149618843  4.1646476819580869  2.1618581422788270
  9.5176060402297331  3.8136525712416254 12.2392409925992514
  9.4093663197952040 11.1360259763462039  2.5852863478473744
  9.4381814624897089 10.9872356978069696 12.1806801609011703
  6.1566504843667191  6.0303985979536829  6.6576694196120947
  6.3236884998231666  6.7250678798332819 16.3596038804039665
  6.6564504981486703 13.9648015175470075  7.5442774079219417
  5.9018568552455593 13.3271245230678286 17.4528913600685911
 13.2059982464118573  6.2892352457289435  6.9513403800562825
 12.8505574033018490  6.1199186244744084 16.2880490970302496
 12.8970073049752934 13.7627497350810337  7.4397919598930349
 12.9912570904392677 13.9273759603177343 17.1231819615251268
  3.0736594276563958 -0.2031775882650677 -0.0207215953249708
  3.0305175019769117 -0.2845159764325155  9.8201243802104408
  3.3275397221983458  7.0759020589591231  0.2073517917096678
  3.5812779740391680  6.9376982793468311  9.5442988608061654
  9.8349843953269218 -0.0810624683963206 -0.0317744422624034
  9.9488985780375732  0.2318729829628476  9.7628714825795129
  9.3253872297385243  7.0087621347633595 -0.4274017293837467
  9.9207487575823023  6.6938111079423610  9.4249716192612425
  0.0269752961700348  3.3710095654476269 -0.2045014709966809
  0.2795995085885081  3.3281516190292333  9.6370997001691645
 -0.1232869012412418 10.5318022684247801  0.0693018762832808
  0.2393365611518940 10.4482433164066073  9.1014228269942521
  6.2367503124996944  3.6164894255299505  0.6424034250365843
  6.6098686751580864  3.1033877772077352  9.5499324012001985
  6.5536905974873036 10.4325403806167873 -0.0262974789748188
  6.6810848203643838 10.4507311178537385  9.5992906477885516
  0.1525000532516375  3.3660400650756763  4.7112909904877336
  0.2571823277758158  3.4685526219972957 14.3105483992406342
 -0.0655253311316646 10.7088559639439964  4.7590735368891153
  0.1185101563441106 11.4510867531714400 14.2285284113878205
  6.5331393832201305  3.1868968097920991  4.6208514111197179
  7.0964348732745854  3.9108866576474419 14.3981145388459204
  6.4229161527977547 10.7710458111004339  4.8900584221611032
  6.8646330938207365 10.9372706320973254 14.6063290896062430
  2.9514596193357847 -0.2627993435464384  4.7744872783025212
  3.6564244521191003  0.2884102221183004 14.7532663345241346
  2.9785238065552573  7.1857339588135014  4.8176529987120613
  2.9250003779349880  7.3815522618475580 14.6458725064836681
  9.8622727071655465 -0.1733737782861272  4.7015327577608650
 10.2115106539490927  0.0207365806883123 14.5617826324560919
 10.0334031809926536  7.4011670106605845  5.0807865066730260
 10.2841329741875693  7.3746517347827130 14.1220680616211425
  3.8869618670053216  6.6177076684178919  2.5673859828029988
  3.7402014539598119  6.7652306866428038 12.1744497783684338
  3.9396154024495678 13.6675766025257381  2.5561370186262189
  4.3912922105324874 13.7470147909708214 12.3169426696153028
 10.1002598122876623  7.2060567661814838  2.3091554511698060
 10.8161532927650121  6.6084558048903830 11.7810406740129725
 10.2882573740101275 13.9509212186688956  2.4048158236542978
 10.7753375246218219 13.3612432276876536 11.9557165098725502
  1.1698411033007314  3.8147027986621409  7.1575141031929661
  1.1084013059564712  3.7952436432718568 16.6899585015457923
  1.0921582477712453 11.0605518893539703  6.9258674949105350
  0.2349303029403526 11.1920140472694349 16.7709651298479372
  7.3410858000677734  3.6663170522202075  6.9746206796261312
  7.6916915406447757  4.0851767245359456 16.7109197900565576
  7.1754622919588043 10.7730226134349110  7.2701976327771334
  7.3624050717922014 10.9835652086552482 16.9932837147432032
  5.1326268811463951  2.6585690194140206  2.5068607560488823
  6.2473837256721092  3.1253234819111211 11.8363526792797344
  5.9938856415846020 10.1698800685647495  2.4124205505710288
  6.0531421540813870 10.5717747073835806 12.2237943776594324
 12.3634788131449316  3.3972656948297959  2.3201299760159682
 12.5620965620620311  3.7417960900717566 12.0082685111863778
 12.0493412209401942 10.4206035101397259  2.5855707839095978
 12.3008976814679425 10.7709864109657030 12.0955233119509238
  2.2099301957107738  0.0450568278175406  7.4514859118777022
  2.7095227887665234  0.5878297614702893 17.0063623848508989
  2.7102399960715831  7.3494735462524350  7.1141910832954682
  2.4177825972956977  7.4418731779055793 17.1666185449989186
  9.3821984545983987  0.4394698983711816  7.3748506659321569
  8.6601541155504780  0.5865771890128667 16.7717727889613180
  8.7011316846700453  7.2448406554691829  7.3705823666632586
  8.3845149842912043  7.9100290573842864 16.7971482104531304
  5.1753418164192704  1.1605609745126131  9.3905001319630621
  5.0973208368202769  1.2981876791892284 18.7280921584213011
  5.8513859667840782  8.0587486247012503  9.3354175034000679
  5.1432624245388476  8.3326900360930285 18.7587443077235676
 12.3402792108438355  1.2181294516798211  9.5010564474911661
 11.4904600622166377  1.7492304923359159 18.6000557497787895
 12.2764792996272227  8.1416350830786772  8.7359613608185924
 11.9432323616778220  8.4716330742898709 18.6405300262185385
  1.9056601331686263  2.0848829178983790  0.5966658920152633
  2.2071857144296025  1.9927240919548046 10.2105151779423888
  2.1775841193105538  9.4972191267452999  0.8739952392618351
  2.1794310481342438  9.1226946615331563 10.3154768856311989
  8.5337297878898166  2.4321741871270688  0.2186017663949938
  9.0932671945799441  2.4214801562301704 10.0459644295056449
  8.7742724929696561  9.7024734599665052  0.4150944049428121
  9.2931969374951446  9.5453415384248377  9.8579834703398372
  4.3669796740792393  4.2898851322780072  5.1322813204838926
  4.6806882482629959  4.9411926649835998 15.0775208746667921
  4.3315240929670571 11.8375245086587828  5.5119580080516641
  4.5979115179642509 12.1702678737751846 15.3266309630451314
 11.1722102523281546  5.0472006749101848  5.0334219999715692
 10.8599349517506507  4.9910335349953217 14.8301382844748382
 10.9463413881636704 11.9686675025691383  5.4966435576045214
 10.7145293261733396 12.1031587607622466 15.0463426570768881
  0.9312484925287551  5.7419681018908877  4.0603326328387386
  1.0858255889964492  5.9185529682644740 13.7774388851151119
  1.0329222538265612 12.4981432536213664  3.7377736874213996
  1.3603798799675821 13.4978490679727763 14.2436271847586795
  7.5111738454310322  5.3196306218046043  4.0621782253976386
  7.7350050692307715  6.1942882263547405 13.5918027892025410
  7.6303022796174886 12.7316209718604085  4.5054885568647460
  7.8753081873098916 12.9209320894832622 13.8608481824851761
  1.0223816854475032  5.6617574205442214  0.7171720938492590
  1.4248208483823792  5.4962754137643799 10.1245904365190924
  0.9769616009766118 12.8866186139508638  0.2371034493999906
  1.1623154759349019 12.3690952405186803 10.3803660512535529
  7.7325027316696131  5.5675069849737291  0.5775339171581552
  8.3088451955799218  5.3992201223414318 10.2032402400639519
  7.6928645735862453 12.8449238261423755  0.4134478901622382
  7.8240522848846661 12.8955912089303215 10.2400801519858469
  4.9347296615333018  5.1333494117951650  8.7353864180422480
  4.5005925862739842  4.8806400593970372 18.9682220684723362
  4.5750595758388801 11.7060137437307379  9.1286023538878371
  4.2345336447208197 11.6874076460369682 18.8051238929244633
 11.2911824444208690  4.8690490193088660  8.7968720521283963
 10.8604298073506396  5.1760086490965218 18.4213094820130081
 11.4535401421443890 11.7675590378987849  8.9621244881546254
 10.9884839004826471 12.0117904650722558 18.8242926311095005
  2.0627861248115420  2.0568693732352417  4.1318068152747873
  2.1665773059120284  2.2295206378236969 13.9083462308428363
  1.8410013914536585  9.3584660963422905  4.4420232940707258
  2.0066650331685389  9.7770799965228967 14.0218354389392985
  8.6779558306802791  1.8042376038580834  4.1355834288358961
  8.6023443021151191  2.0418304161304759 13.9567420216475035
  8.5313317310793604  9.4633880382598434  4.3653613212347873
  8.9356903978623166  9.2458909135458356 14.2454640784007331
  5.2826160568783767  1.0120273954543562  5.1903312684102429
  5.4979461378508896  1.9151971008343900 15.2066606047987491
  5.3146716069843709  8.4776783057764966  5.2401289713636263
  5.2330831798655177  8.3783146731173304 14.4208627741620194
 11.9179445043003298  1.4464317581500659  5.4341096838569056
 12.2208173360787136  1.6081603933443973 15.0303561170802915
 12.0298654229485589  8.2027151712252717  5.4058715221380149
 12.1163489255728738  8.4678274541499086 14.7165793055224423
 -3.6330932122574509 -8.2467592228181097 12.7474013042717207
 -1.3457336802545385 10.2200174558346024 32.5497265293864260
