SYSTEM = Ethanol

ISTART = 0
ICHARG = 2
PREC = Normal
ENCUT = 800.00    
EDIFF = 1E-06
ISMEAR = 0
ALGO = All
NELM = 150
ISIF = 2
ISPIN=1
SIGMA = 0.01
IBRION = -1
POTIM = 0.2
NCORE = 18   
LWAVE  =  .FALSE.
LHFCALC = .TRUE.
GGA = B3
AEXX = 0.2
AGGAX = 0.72
AGGAC = 0.81
ALDAC = 0.19
