C  O  H 
 1.0000000000000000
    30.0000000000000000    0.0000000000000000    0.0000000000000000
     0.0000000000000000   30.0000000000000000    0.0000000000000000
     0.0000000000000000    0.0000000000000000   30.0000000000000000
 C   O   H  
   2   1   6
Cartesian
  1.1681809999999999 -0.4003820000000000  0.0000000000000000
  0.0000000000000000  0.5594620000000000  0.0000000000000000
 -1.1900830000000000 -0.2276690000000000  0.0000000000000000
 -1.9466230000000000  0.3815250000000000  0.0000000000000000
  0.0425570000000000  1.2075080000000000  0.8869330000000000
  0.0425570000000000  1.2075080000000000 -0.8869330000000000
  2.1158910000000000  0.1448000000000000  0.0000000000000000
  1.1285989999999999 -1.0372340000000000  0.8858810000000000
  1.1285989999999999 -1.0372340000000000 -0.8858810000000000
